c description: Tseitin formula on Random 4-regular graph of 8 vertices, with odd charge
c generator: CNFgen (0.9.2)
c copyright: (C) 2012-2022 Massimo Lauria <massimo.lauria@uniroma1.it>
c url: https://massimolauria.net/cnfgen
c command line: cnfgen tseitin 8
c
p cnf 16 64
1 2 3 4 0
1 2 -3 -4 0
1 -2 3 -4 0
1 -2 -3 4 0
-1 2 3 -4 0
-1 2 -3 4 0
-1 -2 3 4 0
-1 -2 -3 -4 0
1 5 6 7 0
1 5 -6 -7 0
1 -5 6 -7 0
1 -5 -6 7 0
-1 5 6 -7 0
-1 5 -6 7 0
-1 -5 6 7 0
-1 -5 -6 -7 0
5 8 9 -10 0
5 8 -9 10 0
5 -8 9 10 0
5 -8 -9 -10 0
-5 8 9 10 0
-5 8 -9 -10 0
-5 -8 9 -10 0
-5 -8 -9 10 0
6 11 12 13 0
6 11 -12 -13 0
6 -11 12 -13 0
6 -11 -12 13 0
-6 11 12 -13 0
-6 11 -12 13 0
-6 -11 12 13 0
-6 -11 -12 -13 0
2 11 14 -15 0
2 11 -14 15 0
2 -11 14 15 0
2 -11 -14 -15 0
-2 11 14 15 0
-2 11 -14 -15 0
-2 -11 14 -15 0
-2 -11 -14 15 0
3 7 8 16 0
3 7 -8 -16 0
3 -7 8 -16 0
3 -7 -8 16 0
-3 7 8 -16 0
-3 7 -8 16 0
-3 -7 8 16 0
-3 -7 -8 -16 0
9 12 14 16 0
9 12 -14 -16 0
9 -12 14 -16 0
9 -12 -14 16 0
-9 12 14 -16 0
-9 12 -14 16 0
-9 -12 14 16 0
-9 -12 -14 -16 0
4 10 13 -15 0
4 10 -13 15 0
4 -10 13 15 0
4 -10 -13 -15 0
-4 10 13 15 0
-4 10 -13 -15 0
-4 -10 13 -15 0
-4 -10 -13 15 0
